NAME : amapa
COMMENT : 15 locations in Brazil
COMMENT : Derived from IBGE datasets
TYPE : TSP
DIMENSION : 15
EDGE_WEIGHT_TYPE : EUC_2D
NODE_COORD_SECTION
1 -51.830552555273094 3.85113073255929
2 -50.9468844677047 2.49460785567278
3 -52.524050832119194 -0.840127280854097
4 -52.419614779571795 -0.918977088542798
5 -50.7932144702699 2.05392124468205
6 -50.7833663204999 1.74226878950006
7 -50.9127861523142 1.5098482403110698
8 -50.797582215999896 0.971830630000056
9 -52.0004014064999 0.899698825000087
10 -51.9465942732743 0.7768828605639441
11 -51.4100262075511 0.711411187591773
12 -50.697506341391495 0.602988649711006
13 -51.2860768561012 -0.12439632882110101
14 -51.1727381679658 -0.04944633876738241
15 -51.182430407999895 0.854799781000054
EOF